W = 39;
H = 39;
N = 29;
Ws = [15, 5, 5, 5, 5, 5, 5, 5, 5, 5, 4, 4, 4, 4, 4, 4, 4, 4, 4, 3, 3, 3, 3, 3, 3, 3, 3, 3, 3];
Hs = [39, 18, 13, 11, 10, 8, 6, 5, 4, 3, 16, 15, 12, 9, 8, 6, 5, 4, 3, 15, 11, 10, 9, 8, 7, 6, 5, 4, 3];